00
00
00
00
00
00
00
00
00
00
00
00
00
00
00
00
00
00
00
00
00
00
00
00
00
00
00
00
00
00
00
00
00
00
00
00
00
00
00
00
00
00
00
00
00
00
00
00
00
00
00
00
00
00
00
00
00
00
00
00
00
00
00
00
00
00
00
00
00
00
00
00
00
00
00
00
00
00
00
00
00
00
00
00
00
00
00
00
00
00
00
00
00
00
00
00
00
00
00
00
00
00
00
00
00
00
00
00
00
00
00
00
00
00
00
00
00
00
00
00
00
00
00
00
00
00
00
00
00
00
00
00
00
00
00
00
00
00
00
00
00
00
00
00
00
00
00
00
00
00
00
00
00
00
00
00
00
00
00
00
00
00
00
00
00
00
00
00
00
00
00
00
00
00
00
00
00
00
00
00
00
00
00
00
00
00
00
00
00
00
00
00
00
00
00
00
00
00
00
00
00
00
00
00
00
00
00
00
00
00
00
00
00
00
00
00
00
00
00
00
00
00
00
00
00
00
00
00
00
00
00
00
00
00
00
00
00
00
00
00
00
00
00
00
00
00
00
00
00
00
00
00
00
00
00
00
00
00
00
00
00
00
00
00
00
00
00
00
00
00
00
00
00
00
00
00
00
00
00
00
00
00
00
00
00
00
00
00
00
00
00
00
00
00
00
00
00
00
00
00
00
00
00
00
00
00
00
00
00
00
00
00
00
00
00
00
00
00
00
00
00
00
00
00
00
00
00
00
00
00
00
00
00
00
00
00
00
00
00
00
00
00
00
00
00
00
00
00
00
00
00
00
00
00
00
00
00
00
00
00
00
00
00
00
00
00
00
00
00
00
00
00
00
00
00
00
00
00
00
00
00
00
00
00
00
00
00
00
00
00
00
00
00
00
00
00
00
00
00
00
00
00
00
00
00
00
00
00
00
00
00
00
00
00
00
00
00
00
00
00
00
00
00
00
00
00
00
00
00
00
00
00
00
00
00
00
00
00
00
00
00
00
00
00
00
00
00
00
00
00
00
00
00
00
00
00
00
00
00
00
00
00
00
00
00
00
00
00
00
00
00
00
00
00
00
00
00
00
00
00
00
00
00
00
00
00
00
00
00
00
00
00
00
00
00
00
00
00
00
00
00
00
00
00
00
00
00
00
00
00
00
00
00
00
00
00
00
00
00
00
00
00
00
00
00
00
00
00
00
00
00
00
00
00
00
00
00
00
00
00
00
00
00
00
00
00
00
00
00
00
00
00
00
00
00
00
00
00
00
00
00
00
00
00
00
00
00
00
00
00
00
00
00
00
00
00
00
00
00
00
00
00
00
00
00
00
00
00
00
00
00
00
00
00
00
00
00
00
00
00
00
00
00
00
00
00
00
00
00
00
00
00
00
00
00
00
00
00
00
00
00
00
00
00
00
00
00
00
00
00
00
00
00
00
00
00
00
00
00
00
00
00
00
00
00
00
00
00
00
00
00
00
00
00
00
00
00
00
00
00
00
00
00
00
00
00
00
00
00
00
00
00
00
00
00
00
00
00
00
00
00
00
00
00
00
00
00
00
00
00
00
00
00
00
00
00
00
00
00
00
00
00
00
00
00
00
00
00
00
00
00
00
00
00
00
00
00
00
00
00
00
00
00
00
00
00
00
00
00
00
00
00
00
00
00
00
00
00
00
00
00
00
00
00
00
00
00
00
00
00
00
00
00
00
00
00
00
00
00
00
00
00
00
00
00
00
00
00
00
00
00
00
00
00
00
00
00
00
00
00
00
00
00
00
00
00
00
00
00
00
00
00
00
00
00
00
00
00
00
00
00
00
00
00
00
00
00
00
00
00
00
00
00
00
00
00
00
00
00
00
00
00
00
00
00
00
00
00
00
00
00
00
00
00
00
00
00
00
00
00
00
00
00
00
00
00
00
00
00
00
00
00
00
00
00
00
00
00
00
00
00
00
00
00
00
00
00
00
00
00
00
00
00
00
00
00
00
00
00
00
00
00
00
00
00
00
00
00
00
00
00
00
00
00
00
00
00
00
00
00
00
00
00
00
00
00
00
00
00
00
00
00
00
00
00
00
00
00
00
00
00
00
00
00
00
00
00
00
00
00
00
00
00
00
00
00
00
00
00
00
00
00
00
00
00
00
00
00
00
00
00
00
00
00
00
00
00
00
00
00
00
00
00
00
00
00
00
00
00
00
00
00
00
00
00
00
00
00
00
00
00
00
00
00
00
00
00
00
00
00
00
00
00
00
00
00
00
00
00
00
00
00
00
00
00
00
00
00
00
00
00
00
00
00
00
00
00
00
00
00
00
00
00
00
00
00
00
00
00
00
00
00
00
00
00
00
00
00
00
00
00
00
00
00
00
00
00
00
00
00
00
00
00
00
00
00
00
00
00
00
00
00
00
00
00
00
00
00
00
00
00
00
00
00
00
00
00
00
00
00
00
00
00
00
00
00
00
00
00
00
00
00
00
00
00
00
00
00
00
00
00
00
00
00
00
00
00
00
00
00
00
00
00
00
00
00
00
00
00
00
00
00
00
00
00
00
00
00
00
00
00
00
00
00
00
00
00
00
00
00
00
00
00
00
00
00
00
00
00
00
00
00
00
00
00
00
00
00
00
00
00
00
00
00
00
00
00
00
00
00
00
00
00
00
00
00
00
00
00
00
00
00
00
00
00
00
00
00
00
00
00
00
00
00
00
00
00
00
00
00
00
00
00
00
00
00
00
00
00
00
00
00
00
00
00
00
00
00
00
00
00
00
00
00
00
00
00
00
00
00
00
00
00
00
00
00
00
00
00
00
00
00
00
00
00
00
00
00
00
00
00
00
00
00
00
00
00
00
00
00
00
00
00
00
00
00
00
00
00
00
00
00
00
00
00
00
00
00
00
00
00
00
00
00
00
00
00
00
00
00
00
00
00
00
00
00
00
00
00
00
00
00
00
00
00
00
00
00
00
00
00
00
00
00
00
00
00
00
00
00
00
00
00
00
00
00
00
00
00
00
00
00
00
00
00
00
00
00
00
00
00
00
00
00
00
00
00
00
00
00
00
00
00
00
00
00
00
00
00
00
00
00
00
00
00
00
00
00
00
00
00
00
00
00
00
00
00
00
00
00
00
00
00
00
00
00
00
00
00
00
00
00
00
00
00
00
00
00
00
00
00
00
00
00
00
00
00
00
00
00
00
00
00
00
00
00
00
00
00
00
00
00
00
00
00
00
00
00
00
00
00
00
00
00
00
00
00
00
00
00
00
00
00
00
00
00
00
00
00
00
00
00
00
00
00
00
00
00
00
00
00
00
00
00
00
00
00
00
00
00
00
00
00
00
00
00
00
00
00
00
00
00
00
00
00
00
00
00
00
00
00
00
00
00
00
00
00
00
00
00
00
00
00
00
00
00
00
00
00
00
00
00
00
00
00
00
00
00
00
00
00
00
00
00
00
00
00
00
00
00
00
00
00
00
00
00
00
00
00
00
00
00
00
00
00
00
00
00
00
00
00
00
00
00
00
00
00
00
00
00
00
00
00
00
00
00
00
00
00
00
00
00
00
00
00
00
00
00
00
00
00
00
00
00
00
00
00
00
00
00
00
00
00
00
00
00
00
00
00
00
00
00
00
00
00
00
00
00
00
00
00
00
00
00
00
00
00
00
00
00
00
00
00
00
00
00
00
00
00
00
00
00
00
00
00
00
00
00
00
00
00
00
00
00
00
00
00
00
00
00
00
00
00
00
00
00
00
00
00
00
00
00
00
00
00
00
00
00
00
00
00
00
00
00
00
00
00
00
00
00
00
00
00
00
00
00
00
00
00
00
00
00
00
00
00
00
00
00
00
00
00
00
00
00
00
00
00
00
00
00
00
00
00
00
00
00
00
00
00
00
00
00
00
00
00
00
00
00
00
00
00
00
00
00
00
00
00
00
00
00
00
00
00
00
00
00
00
00
00
00
00
00
00
00
00
00
00
00
00
00
00
00
00
00
00
00
00
00
00
00
00
00
00
00
00
00
00
00
00
00
00
00
00
00
00
00
00
00
00
00
00
00
00
00
00
00
00
00
00
00
00
00
00
00
00
00
00
00
00
00
00
00
00
00
00
00
00
00
00
00
00
00
00
00
00
00
00
00
00
00
00
00
00
00
00
00
00
00
00
00
00
00
00
00
00
00
00
00
00
00
00
00
00
00
00
00
00
00
00
00
00
00
00
00
00
00
00
00
00
00
00
00
00
00
00
00
00
00
00
00
00
00
00
00
00
00
00
00
00
00
00
00
00
00
00
00
00
00
00
00
00
00
00
00
00
00
00
00
00
00
00
00
00
00
00
00
00
00
00
00
00
00
00
00
00
00
00
00
00
00
00
00
00
00
00
00
00
00
00
00
00
00
00
00
00
00
00
00
00
00
00
00
00
00
00
00
00
00
00
00
00
00
00
00
00
00
00
00
00
00
00
00
00
00
00
00
00
00
00
00
00
00
00
00
00
00
00
00
00
00
00
00
00
00
00
00
00
00
00
00
00
00
00
00
00
00
00
00
00
00
00
00
00
00
00
00
00
00
00
00
00
00
00
00
00
00
00
00
00
00
00
00
00
00
00
00
00
00
00
00
00
00
00
00
00
00
00
00
E6
D0
D0
05
06
0C
7B
83
B7
67
0E
0F
37
3E
E0
96
AD
2D
0C
A7
9F
D5
47
E3
37
14
0F
08
8B
3D
05
A2
43
04
F0
5E
09
0E
3C
8A
A3
04
05
42
5F
F1
10
D4
F3
07
E4
06
2B
88
6F
F2
D5
E5
06
2A
07
6E
89
44
2D
30
97
1C
17
A9
31
2C
1D
96
A8
16
40
14
10
1A
EB
11
15
EA
1B
54
23
38
39
22
50
5D
96
D5
7A
6C
10
62
C9
DA
F4
92
BF
0F
43
06
20
D8
CA
F7
76
03
44
B6
06
04
A9
03
A4
B9
D0
8D
EC
F7
0E
CB
F6
21
D9
45
B7
77
02
A5
B8
A8
02
ED
F6
D1
8C
2D
57
1C
6A
F8
C1
0A
1C
10
0C
0E
63
08
2C
C0
0B
6B
F9
62
09
0D
0F
23
53
1A
1A
14
22
7A
9D
5D
A0
91
DF
4B
90
21
80
49
8C
76
5A
18
01
D9
46
A8
F8
33
43
72
B2
8F
7E
C8
84
65
95
E0
E8
66
FC
A5
D8
C0
CA
7B
41
B8
5C
F9
AE
E2
61
A0
8B
D1
7B
3F
42
E1
46
C8
24
D7
2B
9A
4C
38
49
A7
69
73
01
22
F6
BC
FD
14
52
11
C8
FC
DB
F6
F4
C0
86
B0
4C
EF
29
10
53
13
17
B3
41
8E
4E
1E
39
F6
3E
1F
C8
7B
3C
35
18
59
DA
4D
42
57
42
43
CF
B4
97
7B
11
24
EE
6C
46
B9
D1
F0
61
C5
4B
83
A9
C6
D0
6A
49
29
59
5E
81
B8
64
F4
98
36
87
A2
51
25
CD
7B
27
EA
DD
85
42
6D
F4
96
42
9D
6F
7B
AC
52
2D
D8
70
01
8D
77
5F
A6
26
2E
7B
82
01
9C
3C
F2
F7
F6
7B
01
F5
4F
EE
27
EF
42
55
A8
D3
9D
CF
42
FC
BC
93
23
7B
90
AB
F5
75
EC
88
2E
A4
DF
E1
7B
52
28
09
79
42
A1
89
99
28
08
9B
67
42
C8
FA
7B
B5
FE
35
5B
02
44
6E
FC
D5
6B
1D
5A
87
D5
68
61
F9
7D
0E
83
FF
C1
5E
75
89
08
0D
17
BE
26
7A
EC
AA
72
E0
5C
02
A2
E6
F2
0B
6B
A8
E3
12
49
EA
47
DD
04
DE
63
1A
9F
AD
05
0E
C1
EA
38
23
23
39
BA
7A
53
C9
EE
28
F5
65
C4
8F
70
B2
06
8C
F7
B2
70
8F
C4
65
F5
28
EE
03
02
DA
8F
52
D2
68
C8
76
F5
04
35
F5
C8
39
8F
C3
22
D2
63
68
93
F5
5B
52
4F
8F
0A
8A
F3
CA
A4
78
6B
07
04
03
8D
D1
02
08
8C
02
44
F7
B8
F6
50
03
0E
88
04
F0
06
0C
DD
80
C0
60
84
BE
39
70
1F
8B
CC
65
A8
B5
0A
C9
93
BC
7E
42
52
96
8B
94
34
36
C9
8A
39
E8
70
74
33
7E
DC
6C
60
65
7A
1B
57
A5
4C
83
49
FE
3C
10
C4
32
A5
31
5C
DF
0B
CD
A8
82
3B
E9
EC
CA
66
5D
D5
A7
97
C8
71
88
0F
B3
C5
56
41
1C
01
BA
1F
31
2F
43
B5
7A
B1
A7
87
85
D7
AE
47
27
0F
B2
F4
B3
D7
47
7A
DA
6F
05
F7
E4
7E
D1
F5
31
84
27
DE
43
9A
89
0E
AC
B3
12
69
73
30
52
A7
40
89
9B
CF
AE
EC
FB
9A
A2
2F
CE
5C
32
7A
4C
0A
5E
E8
74
B6
2F
7A
A0
EE
48
55
D1
72
98
8A
31
89
88
9A
32
EC
83
7B
C5
E3
64
D4
13
53
13
17
B3
41
8E
4E
1E
26
4E
F4
7A
BA
27
19
61
A0
8B
D1
7B
3F
97
89
27
31
59
C1
B6
75
9A
52
86
49
5A
3B
28
DC
53
29
9A
7A
A7
67
E9
FB
D1
D6
D9
DF
E2
C1
10
49
31
D7
2B
9A
4C
3A
EF
87
8E
11
4F
AE
4B
34
60
D4
9C
0E
A4
D0
02
60
F6
45
A4
5A
CF
8D
6C
02
44
F0
68
BA
4C
C6
19
17
DB
1A
F4
2E
E7
DA
CB
D3
71
55
07
66
D8
F1
33
AB
B9
D1
A0
8A
F6
48
8D
77
90
0E
C1
AD
0D
82
B8
41
5C
E1
7A
3F
25
36
F9
AA
F7
6B
AB
9C
8A
3F
64
BB
AA
A6
04
01
73
DC
AB
30
B4
46
A6
01
3F
58
5C
3D
BB
F9
46
BC
05
71
D7
C1
ED
2F
1B
D6
E1
B9
7E
51
A4
E3
62
B3
83
4A
B8
E4
CA
42
6E
C0
C3
BD
47
14
73
47
67
B5
58
26
B7
48
0C
11
43
04
60
75
CC
C7
9A
05
06
82
CD
D5
8E
BD
2C
89
1E
A0
86
FF
05
EC
89
FA
E7
D6
5D
63
DD
8A
36
01
FA
BE
13
BD
6D
05
20
14
49
58
DA
11
18
06
37
F2
DD
A0
9F
89
F3
04
FC
7D
6D
F4
D6
C3
05
53
37
7A
05
96
AD
DD
2D
67
3E
D6
82
F3
77
5E
1E
BE
15
AF
82
C3
6D
83
35
42
B7
0A
3B
0E
67
37
0F
7B
0C
B7
83
14
C0
0F
AA
06
43
05
3F
08
80
F3
D6
66
9D
D2
BE
50
2E
6D
3D
AD
E5
1A
49
AD
93
CD
D4
10
0B
0C
88
F3
05
04
33
9B
45
82
EE
D6
94
BE
BC
B9
4F
94
6D
D5
89
02
46
52
DA
0C
73
E8
88
68
78
37
48
BB
67
F8
1A
31
8B
3C
22
2D
4B
48
BC
3C
24
77
71
76
CC
F8
82
D4
4F
E6
3C
3F
F2
69
E6
28
D1
EA
ED
15
69
D7
9B
DE
0E
5B
D3
61
1F
F2
95
3C
44
1D
E4
DD
88
1C
14
9A
08
AE
DA
63
0A
93
FF
18
06
37
F2
DD
A0
9F
89
F3
05
C3
25
31
C9
6D
3A
43
3B
86
54
56
71
3F
C7
49
FA
1B
56
BC
81
F3
20
E8
01
1E
59
05
89
CF
1A
49
AD
B6
58
8E
B2
A2
1F
15
B8
0B
7A
04
D1
06
82
CD
D5
8E
BD
2C
89
6C
7A
2D
71
12
D4
1B
31
2D
EA
1B
11
15
50
E7
7F
1E
49
94
6D
D5
89
5B
42
16
74
B7
5A
09
DA
A2
86
C8
0A
62
4C
D9
0F
93
64
5E
2A
71
89
3F
D7
15
1B
4E
77
5E
1E
BE
15
89
E5
19
67
A7
AD
AF
48
93
64
46
0C
BC
29
EA
71
9F
27
33
17
11
A6
1B
8C
1E
D3
BC
29
FB
89
43
26
22
52
1B
58
DA
69
F1
E8
26
58
B6
DA
71
76
CC
F8
82
AB
2D
B5
F9
8F
BC
B3
95
3C
8D
1A
B8
21
CC
E0
8B
3C
22
2D
E8
69
B7
CD
E6
B9
2B
69
D3
8E
26
DE
BF
0A
0E
CB
3F
F2
69
25
95
02
7C
1D
88
04
50
14
B2
16
F4
E7
65
11
10
14
2B
94
C4
03
A9
E8
11
01
FB
C9
86
7A
9F
47
DB
13
2D
FA
D9
9E
CC
39
E6
A4
24
26
67
DA
0A
F2
20
1A
9C
C4
76
36
E6
EB
33
8A
3C
51
B5
22
FD
97
1C
0F
29
86
5E
BF
3F
9E
FA
60
F8
54
A4
21
F9
0A
9A
D7
7F
BC
C7
2B
D8
A8
B5
28
9D
1E
49
0C
86
0A
30
76
33
D9
E0
FA
EC
A4
72
A8
AC
B2
0A
0F
83
8A
13
3E
E8
73
E6
D7
80
E8
8B
E1
2E
7E
32
1C
57
74
72
6C
5A
41
4D
82
4A
A2
44
EE
AB
A7
B2
1C
75
F9
50
78
6C
B8
4B
8F
4A
37
BF
64
9C
D2
F5
4F
C4
18
1E
12
BB
9D
F0
4B
6F
A2
88
84
27
A7
0D
24
4F
B2
22
07
28
95
2D
F5
59
8E
0F
A7
EA
7A
86
41
64
3F
2D
D2
82
56
24
F9
9C
DA
7A
47
D7
69
1A
A7
FC
6F
DE
C4
BF
53
0C
D5
7A
31
69
55
39
33
F7
2D
07
24
F5
AC
D4
35
DA
B7
0F
A2
02
22
C4
1E
96
0E
25
6A
E8
C7
73
7D
26
75
74
B1
0B
78
44
5A
B8
4B
8F
66
5A
5F
8E
06
9D
75
AF
B5
9E
D1
78
93
3F
E8
A2
44
62
C9
C7
2A
D2
C5
D7
26
1B
15
88
5A
61
3F
F3
66
C5
BA
A7
24
97
30
1D
14
85
08
0F
0C
53
77
23
2D
33
3F
DC
F9
AC
A2
60
0F
D7
32
CE
C2
3E
F9
A8
4A
22
5B
95
A5
73
E8
14
F7
10
74
8E
0F
5A
3E
21
A0
E9
4A
9E
7F
EB
2C
7D
26
75
74
B1
78
F6
8D
3E
F7
8F
97
D7
A1
88
D2
39
AB
E2
CB
18
85
A2
44
8F
B8
4B
8F
32
7F
EE
2D
3F
9A
C1
0A
54
29
C7
24
E8
0B
74
4C
20
E7
4B
5A
77
EF
15
A5
27
44
6C
88
36
75
0C
4C
5B
0B
78
44
5A
85
FF
B4
37
78
45
56
D2
BB
01
B8
4B
8F
12
ED
2A
18
0F
FF
A2
44
BF
27
31
3A
63
35
61
65
6F
9E
62
EA
9F
2B
0A
43
07
85
75
1A
63
08
0C
0E
A0
44
70
7E
B9
06
53
47
43
49
C1
9F
F5
97
52
23
8A
DE
B1
08
B5
E1
57
6C
54
A8
19
2C
D6
EB
85
C6
D2
A6
E8
91
8D
FA
E1
5A
7E
D6
43
CF
DC
B1
BB
F5
A6
34
51

